18917.8
0 5 104 98 95 93 94 96 99 103 1 4 3 2 102 100 97 92 101 6 52 9 10 17 21 22 28 16 20 23 27 26 24 19 15 14 18 25 29 30 31 32 33 36 37 46 45 40 39 38 43 44 48 49 11 13 12 8 7 91 90 87 86 66 65 57 56 61 60 55 54 53 58 59 62 63 67 50 73 74 81 82 83 84 80 75 72 71 76 79 78 77 70 68 69 64 85 88 89 51 35 34 41 42 47 
